Optimal - objective value -65.30900000
      2 squad[3]                                   1                       0
      3 squad[4]                                   1                       0
     15 squad[17]                                  1                       0
     41 squad[44]                                  1                       0
     94 squad[91]                                  1                       0
    102 squad[99]                                  1                       0
    181 squad[171]                                 1                       0
    192 squad[182]                                 1                       0
    200 squad[575]                                 1                       0
    360 squad[328]                                 1                       0
    438 squad[401]                                 1                       0
    472 squad[433]                                 1                       0
    499 squad[455]                                 1                       0
    559 squad[609]                                 1                       0
    592 squad[536]                                 1                       0
    625 lineup[3]                                  1                   -4.26
    626 lineup[4]                                  1                    -5.5
    638 lineup[17]                                 1                   -6.79
    664 lineup[44]                                 1                   -3.58
    717 lineup[91]                                 1                   -3.74
    725 lineup[99]                                 1                   -6.01
    804 lineup[171]                                1                    -3.7
    815 lineup[182]                                1                   -7.04
    983 lineup[328]                                1                   -6.07
   1061 lineup[401]                                1                   -5.88
   1095 lineup[433]                                1                   -5.02
   1438 captain[182]                               1                   -7.04
   1884 vicecap[17]                                1                  -0.679
